n_res = 4;
rc = [ 0, 0, 0, 0 ];
n_tasks = 30;
d = [ 6, 4, 6, 6, 2, 3, 9, 9, 9, 2, 2, 3, 8, 9, 10, 2, 2, 9, 10, 4, 1, 2, 3, 5, 1, 2, 2, 4, 1, 10 ];
rr = [| 0, 0, 0, 0, 0, 0, 0, 0, 0, 0, 0, 0, 0, 0, 0, 0, 0, 0, 0, 0, 0, 0, 0, 0, 0, 0, 0, 0, 0, 0
      | 0, 0, 0, 0, 0, 0, 0, 0, 0, 0, 0, 0, 0, 0, 0, 0, 0, 0, 0, 0, 0, 0, 0, 0, 0, 0, 0, 0, 0, 0
      | 0, 0, 0, 0, 0, 0, 0, 0, 0, 0, 0, 0, 0, 0, 0, 0, 0, 0, 0, 0, 0, 0, 0, 0, 0, 0, 0, 0, 0, 0
      | 0, 0, 0, 0, 0, 0, 0, 0, 0, 0, 0, 0, 0, 0, 0, 0, 0, 0, 0, 0, 0, 0, 0, 0, 0, 0, 0, 0, 0, 0 |];
suc = [ { 4 },
       { 6, 11, 12 },
       { 5, 11 },
       { 19, 20, 24 },
       { 18, 23 },
       { 7, 8, 9 },
       { 15, 20, 28 },
       { 10, 19 },
       { 13, 17, 22 },
       { 18, 21, 22 },
       { 27 },
       { 14 },
       { 14, 18, 21 },
       { 24 },
       { 16 },
       { 17, 27 },
       { 30 },
       { 24, 26 },
       { 21 },
       { 23, 27 },
       { 25, 26, 29 },
       { 23, 25, 30 },
       { 29 },
       { 25 },
       { 28 },
       { 28 },
       { 29, 30 },
       {  },
       {  },
       {  } ];
